db/data/2636137941741112644161066382149217400.z3.out
-------------------
2500.055255870
